!
!   GAMESS Calculation input file
!   
!
 $CONTRL SCFTYP=RHF MAXIT=200 RUNTYP=OPTIMIZE
         COORD=UNIQUE MULT=1 
         ICHARG=0  
         DFTTYP=B3LYP
         MOLPLT=.FALSE. PLTORB=.FALSE.  $END
 $SYSTEM TIMLIM=2879 MWORDS=250  $END

 $FORCE METHOD=SEMINUM NVIB=2 $END 
 $STATPT OPTTOL=0.0005 NSTEP=999 $END
 $STATPT IHREP=0 HSSEND=.TRUE.  $END

 $DFT    METHOD=GRID  NLEB=590  $END

 $BASIS  GBASIS=N21 NGAUSS=3 $END

 $SCF    DIRSCF=.T. $END
 $GUESS  GUESS=HUCKEL  $END

 $DATA
   
  C1
C     6.0    -1.29068    -0.65546     0.26240
C     6.0    -0.01221     0.09996    -0.00506
O     8.0     1.10709    -0.63903    -0.18650
N     7.0     0.05771     1.38305    -0.05237
H     1.0    -2.06320    -0.32170    -0.43623
H     1.0    -1.61671    -0.46009     1.28791
H     1.0    -1.14746    -1.73277     0.13510
H     1.0     0.93696    -1.59356    -0.12303
H     1.0     1.03145     1.64780    -0.24026
 $END


! Customizations after this line are persisted when using Do More Calculations
